[-1, 0, 0, 382, 0, 468, 490, 
443, -1, 6, 990, 497, 0, 0, 
109, 41, -1, 0, 0, 879, 679, 
635, 794, 283, -1, 519, 341, 0, 
143, 783, 325, 700, -1, 74, 0, 
584, 160, 460, 0, 604, -1, 0, 
0, 33, 453, 202, 0, 0, -1]